n_res = 3;
rc = [ 4, 6, 5 ];
n_tasks = 25;
d = [ 2, 5, 4, 5, 2, 3, 1, 3, 2, 2, 2, 2, 5, 3, 2, 4, 3, 5, 5, 1, 3, 2, 3, 3, 3 ];
rr = [| 2, 2, 1, 2, 2, 2, 2, 1, 2, 1, 1, 0, 0, 0, 1, 0, 1, 2, 1, 1, 0, 2, 0, 0, 2
      | 3, 3, 0, 1, 1, 3, 3, 2, 2, 2, 0, 0, 0, 0, 0, 0, 0, 1, 0, 3, 2, 2, 0, 3, 1
      | 0, 2, 1, 0, 1, 1, 0, 1, 0, 0, 2, 2, 1, 2, 2, 2, 2, 0, 1, 1, 2, 2, 0, 1, 2 |];
suc = [ { 8, 20, 23 },
       { 14 },
       { 14, 15, 18, 19 },
       { 21, 22, 25 },
       { 7, 8, 9, 15, 21 },
       { 13, 17, 21, 23 },
       { 18, 19, 20 },
       { 12, 13 },
       { 22, 23 },
       { 14, 16 },
       { 18, 19 },
       { 13, 15 },
       { 15, 17, 25 },
       {  },
       { 21 },
       { 20 },
       { 22 },
       {  },
       { 23, 24 },
       {  },
       { 25 },
       {  },
       { 24 },
       {  },
       {  } ];
t_max = 75;
deadline = [| 6, 0, 2
 | 14, 0, 3
 | 7, 3, 0
 | 14, 4, 2
 | 13, 1, 3
 | 33, 4, 1
 | 21, 1, 2
 | 11, 0, 1
 | 10, 2, 3
 | 19, 0, 1
 | 30, 1, 3
 | 36, 2, 2
 | 1, 2, 4
 | 34, 0, 3
 | 10, 1, 0
 | 29, 2, 2
 | 26, 0, 2
 | 27, 2, 3
 | 9, 2, 0
 | 26, 3, 4
 | 16, 0, 2
 | 5, 3, 1
 | 25, 4, 1
 | 29, 4, 2
 | 17, 0, 4 |];
